27415 17
15823 38
12947 54
12896 70
11424 86
11246 102
10659 134
10570 165
9722 198
9624 214
9529 230
9347 246
9334 266
9296 282
8426 298
8405 314
8039 330
8039 363
8039 395
7902 411
7774 838
7707 2201
7703 2359
7680 3118
7679 11003
7679 11366
7574 29954



28 15 45 43 33 34 35 38 39 37 36 47 23 4 14 5 3 24 11 27 26 25 46 12 13 51 10 50 32 42 9 8 7 40 18 44 31 48 0 21 30 17 2 16 20 1 6 41 29 22 19 49 
 Best tour Lenght 7574